c User generated cnf file
p cnf 12 31
5 -2 12 0 
1 7 -2 0 
-10 6 12 0 
11 2 -2 0 
-10 3 3 0 
3 -4 10 0 
-10 10 10 0 
2 -9 9 0 
-5 5 11 0 
10 -10 4 0 
-3 8 3 0 
5 5 -9 0 
-8 4 2 0 
-10 7 5 0 
7 12 -12 0 
-11 6 12 0 
1 -4 1 0 
6 -7 5 0 
4 9 -5 0 
12 -2 9 0 
9 2 -2 0 
5 -7 12 0 
11 4 -2 0 
11 -7 12 0 
8 -8 8 0 
-7 5 5 0 
8 5 -4 0 
12 -9 4 0 
12 -6 4 0 
7 3 -4 0 
2 4 -2 0 
